tsp_instances/TSP20/instance39.tsp
NODE_COORD_SECTION
0 184 91
1 98 148
2 4 40
3 17 135
4 158 3
5 29 27
6 117 101
7 30 155
8 124 46
9 134 60
10 192 87
11 105 116
12 194 26
13 3 173
14 73 2
15 24 196
16 8 71
17 79 112
18 79 119
19 54 62
