tsp_instances/TSP20/instance39.opt.tour
TOUR_SECTION
1
7
12
18
19
2
16
14
8
4
17
3
6
20
15
9
10
5
13
11
-1